(declare-fun temp682_1 () (_ BitVec 64))
(declare-fun var75937 () (_ BitVec 64))
(declare-fun ARGNAME_input_NAMEEND_DIM () (_ BitVec 64))
(declare-fun temp682_2 () (_ BitVec 64))
(declare-fun var141643 () (_ BitVec 64))
(declare-fun ARGNAME_offset_NAMEEND () (_ BitVec 64))
(declare-fun temp682_3 () (_ BitVec 64))
(declare-fun var71509 () (_ BitVec 64))
(declare-fun temp682_4 () (_ BitVec 64))
(declare-fun temp682_5 () (_ BitVec 64))
(declare-fun temp682_6 () (_ BitVec 64))
(declare-fun ARGNAME_input_NAMEEND_DIMSIZE
             ()
             (Array (_ BitVec 64) (_ BitVec 64)))
(declare-fun temp682_7 () (_ BitVec 64))
(declare-fun temp682_8 () (_ BitVec 64))
(declare-fun temp682_9 () (_ BitVec 64))
(declare-fun temp682_10 () (_ BitVec 64))
(declare-fun temp682_11 () (_ BitVec 64))
(declare-fun temp682_12 () (_ BitVec 64))
(declare-fun temp682_13 () (_ BitVec 64))
(declare-fun temp682_14 () (_ BitVec 64))
(declare-fun temp682_15 () (_ BitVec 64))
(declare-fun temp682_16 () (_ BitVec 64))
(declare-fun temp682_17 () (_ BitVec 64))
(declare-fun temp682_18 () (_ BitVec 64))
(declare-fun temp682_19 () (_ BitVec 64))
(declare-fun temp682_20 () (_ BitVec 64))
(declare-fun temp682_21 () (_ BitVec 64))
(declare-fun temp682_22 () (_ BitVec 64))
(declare-fun temp682_23 () (_ BitVec 64))
(declare-fun temp682_24 () (_ BitVec 64))
(declare-fun var75972 () (_ BitVec 64))
(declare-fun temp682_25 () (_ BitVec 64))
(declare-fun var2692541 () (_ BitVec 64))
(declare-fun var2692553 () (_ BitVec 64))
(declare-fun temp682_26 () (_ BitVec 64))
(declare-fun var5903805 () (_ BitVec 64))
(declare-fun var5903817 () (_ BitVec 64))
(assert (= temp682_1 #x0000000000000001))
(assert (= var75937 (bvadd ARGNAME_input_NAMEEND_DIM temp682_1)))
(assert (= temp682_2 #x0000000000000000))
(assert (= var141643
   (ite (bvslt ARGNAME_offset_NAMEEND temp682_2)
        #x0000000000000001
        #x0000000000000000)))
(assert (= temp682_3 #xffffffffffffffff))
(assert (= var71509 temp682_3))
(assert (= temp682_4 #x0000000000000000))
(assert (= temp682_5 temp682_4))
(assert (= temp682_6 (select ARGNAME_input_NAMEEND_DIMSIZE temp682_5)))
(assert (= temp682_7 #x0000000000000001))
(assert (= temp682_8 temp682_7))
(assert (= temp682_9 (select ARGNAME_input_NAMEEND_DIMSIZE temp682_8)))
(assert (= temp682_10 #x0000000000000002))
(assert (= temp682_11 temp682_10))
(assert (= temp682_12 (select ARGNAME_input_NAMEEND_DIMSIZE temp682_11)))
(assert (= temp682_13 #x0000000000000003))
(assert (= temp682_14 temp682_13))
(assert (= temp682_15 (select ARGNAME_input_NAMEEND_DIMSIZE temp682_14)))
(assert (= temp682_16 #x0000000000000004))
(assert (= temp682_17 temp682_16))
(assert (= temp682_18 (select ARGNAME_input_NAMEEND_DIMSIZE temp682_17)))
(assert (= temp682_19 #x0000000000000005))
(assert (= temp682_20 temp682_19))
(assert (= temp682_21 (select ARGNAME_input_NAMEEND_DIMSIZE temp682_20)))
(assert (= temp682_22 #x0000000000000000))
(assert (= temp682_23
   (ite (bvslt var71509 temp682_22)
        (bvadd ARGNAME_input_NAMEEND_DIM var71509)
        var71509)))
(assert (= temp682_24 (select ARGNAME_input_NAMEEND_DIMSIZE temp682_23)))
(assert (= var75972 temp682_24))
(assert (bvslt (ite (bvslt var71509 temp682_22)
            (bvadd ARGNAME_input_NAMEEND_DIM var71509)
            var71509)
       ARGNAME_input_NAMEEND_DIM))
(assert (= temp682_25 #x0000000000000001))
(assert (= var2692541 temp682_25))
(assert (= var2692553 var2692541))
(assert (= temp682_26 #x0000000000000001))
(assert (= var5903805 temp682_26))
(assert (= var5903817 var5903805))
(model-add temp682_1 () (_ BitVec 64) #x0000000000000001)
(model-add var75937
           ()
           (_ BitVec 64)
           (bvadd #x0000000000000001 ARGNAME_input_NAMEEND_DIM))
(model-add temp682_2 () (_ BitVec 64) #x0000000000000000)
(model-add var141643
           ()
           (_ BitVec 64)
           (ite (bvsle #x0000000000000000 ARGNAME_offset_NAMEEND)
                #x0000000000000000
                #x0000000000000001))
(model-add temp682_3 () (_ BitVec 64) #xffffffffffffffff)
(model-add var71509 () (_ BitVec 64) #xffffffffffffffff)
(model-add temp682_4 () (_ BitVec 64) #x0000000000000000)
(model-add temp682_5 () (_ BitVec 64) #x0000000000000000)
(model-add temp682_6
           ()
           (_ BitVec 64)
           (select ARGNAME_input_NAMEEND_DIMSIZE #x0000000000000000))
(model-add temp682_7 () (_ BitVec 64) #x0000000000000001)
(model-add temp682_8 () (_ BitVec 64) #x0000000000000001)
(model-add temp682_9
           ()
           (_ BitVec 64)
           (select ARGNAME_input_NAMEEND_DIMSIZE #x0000000000000001))
(model-add temp682_10 () (_ BitVec 64) #x0000000000000002)
(model-add temp682_11 () (_ BitVec 64) #x0000000000000002)
(model-add temp682_12
           ()
           (_ BitVec 64)
           (select ARGNAME_input_NAMEEND_DIMSIZE #x0000000000000002))
(model-add temp682_13 () (_ BitVec 64) #x0000000000000003)
(model-add temp682_14 () (_ BitVec 64) #x0000000000000003)
(model-add temp682_15
           ()
           (_ BitVec 64)
           (select ARGNAME_input_NAMEEND_DIMSIZE #x0000000000000003))
(model-add temp682_16 () (_ BitVec 64) #x0000000000000004)
(model-add temp682_17 () (_ BitVec 64) #x0000000000000004)
(model-add temp682_18
           ()
           (_ BitVec 64)
           (select ARGNAME_input_NAMEEND_DIMSIZE #x0000000000000004))
(model-add temp682_19 () (_ BitVec 64) #x0000000000000005)
(model-add temp682_20 () (_ BitVec 64) #x0000000000000005)
(model-add temp682_21
           ()
           (_ BitVec 64)
           (select ARGNAME_input_NAMEEND_DIMSIZE #x0000000000000005))
(model-add temp682_22 () (_ BitVec 64) #x0000000000000000)
(model-add temp682_23
           ()
           (_ BitVec 64)
           (bvadd #xffffffffffffffff ARGNAME_input_NAMEEND_DIM))
(model-add temp682_24
           ()
           (_ BitVec 64)
           (select ARGNAME_input_NAMEEND_DIMSIZE
                   (bvadd #xffffffffffffffff ARGNAME_input_NAMEEND_DIM)))
(model-add var75972
           ()
           (_ BitVec 64)
           (select ARGNAME_input_NAMEEND_DIMSIZE
                   (bvadd #xffffffffffffffff ARGNAME_input_NAMEEND_DIM)))
(model-add temp682_25 () (_ BitVec 64) #x0000000000000001)
(model-add var2692541 () (_ BitVec 64) #x0000000000000001)
(model-add var2692553 () (_ BitVec 64) #x0000000000000001)
(model-add temp682_26 () (_ BitVec 64) #x0000000000000001)
(model-add var5903805 () (_ BitVec 64) #x0000000000000001)
(model-add var5903817 () (_ BitVec 64) #x0000000000000001)






